800
6937.0 159849.5
4106.0 159947.3
2937.0 159973.0
1412.0 159993.8
1058.0 159996.5
1047.0 159996.6
1024.0 159996.7
971.0 159997.1
958.0 159997.1
955.0 159997.1
952.0 159997.2
942.0 159997.2
940.0 159997.2
935.0 159997.3
929.0 159997.3
922.0 159997.3
921.0 159997.3
918.0 159997.4
915.0 159997.4
902.0 159997.5
896.0 159997.5
895.0 159997.5
894.0 159997.5
885.0 159997.6
882.0 159997.6
876.0 159997.6
869.0 159997.6
867.0 159997.7
857.0 159997.7
853.0 159997.7
851.0 159997.7
848.0 159997.8
846.0 159997.8
834.0 159997.8
829.0 159997.9
822.0 159997.9
817.0 159997.9
813.0 159997.9
806.0 159998.0
804.0 159998.0
803.0 159998.0
793.0 159998.0
792.0 159998.0
781.0 159998.1
776.0 159998.1
773.0 159998.1
772.0 159998.1
771.0 159998.1
765.0 159998.2
754.0 159998.2
747.0 159998.3
742.0 159998.3
735.0 159998.3
730.0 159998.3
725.0 159998.4
722.0 159998.4
716.0 159998.4
711.0 159998.4
706.0 159998.4
701.0 159998.5
699.0 159998.5
698.0 159998.5
697.0 159998.5
686.0 159998.5
685.0 159998.5
672.0 159998.6
668.0 159998.6
662.0 159998.6
661.0 159998.6
659.0 159998.6
657.0 159998.7
647.0 159998.7
639.0 159998.7
637.0 159998.7
625.0 159998.8
623.0 159998.8
619.0 159998.8
617.0 159998.8
613.0 159998.8
611.0 159998.8
598.0 159998.9
594.0 159998.9
591.0 159998.9
583.0 159998.9
576.0 159999.0
575.0 159999.0
568.0 159999.0
562.0 159999.0
557.0 159999.0
552.0 159999.0
550.0 159999.1
544.0 159999.1
538.0 159999.1
534.0 159999.1
525.0 159999.1
523.0 159999.1
520.0 159999.2
510.0 159999.2
508.0 159999.2
500.0 159999.2
497.0 159999.2
496.0 159999.2
489.0 159999.3
484.0 159999.3
482.0 159999.3
481.0 159999.3
467.0 159999.3
463.0 159999.3
456.0 159999.4
450.0 159999.4
448.0 159999.4
446.0 159999.4
435.0 159999.4
430.0 159999.4
427.0 159999.4
422.0 159999.4
419.0 159999.5
417.0 159999.5
406.0 159999.5
403.0 159999.5
396.0 159999.5
394.0 159999.5
389.0 159999.5
380.0 159999.5
377.0 159999.6
370.0 159999.6
368.0 159999.6
366.0 159999.6
357.0 159999.6
355.0 159999.6
352.0 159999.6
346.0 159999.6
342.0 159999.6
338.0 159999.6
327.0 159999.7
321.0 159999.7
316.0 159999.7
315.0 159999.7
306.0 159999.7
300.0 159999.7
299.0 159999.7
291.0 159999.7
290.0 159999.7
286.0 159999.7
277.0 159999.8
272.0 159999.8
265.0 159999.8
263.0 159999.8
262.0 159999.8
256.0 159999.8
245.0 159999.8
240.0 159999.8
235.0 159999.8
231.0 159999.8
228.0 159999.8
225.0 159999.8
219.0 159999.9
218.0 159999.9
208.0 159999.9
201.0 159999.9
195.0 159999.9
194.0 159999.9
188.0 159999.9
186.0 159999.9
179.0 159999.9
177.0 159999.9
171.0 159999.9
167.0 159999.9
159.0 159999.9
153.0 159999.9
151.0 159999.9
146.0 159999.9
138.0 159999.9
135.0 159999.9
133.0 159999.9
124.0 160000.0
116.0 160000.0
111.0 160000.0
109.0 160000.0
100.0 160000.0
95.0 160000.0
94.0 160000.0
93.0 160000.0
83.0 160000.0
75.0 160000.0
71.0 160000.0
69.0 160000.0
67.0 160000.0
56.0 160000.0
51.0 160000.0
50.0 160000.0
46.0 160000.0
41.0 160000.0
32.0 160000.0
28.0 160000.0
21.0 160000.0
19.0 160000.0
16.0 160000.0
6.0 160000.0
0.0 160000.0
-0.0 160000.0
-5.0 160000.0
-12.0 160000.0
-16.0 160000.0
-20.0 160000.0
-31.0 160000.0
-35.0 160000.0
-36.0 160000.0
-43.0 160000.0
-49.0 160000.0
-54.0 160000.0
-55.0 160000.0
-65.0 160000.0
-74.0 160000.0
-75.0 160000.0
-82.0 160000.0
-83.0 160000.0
-85.0 160000.0
-95.0 160000.0
-100.0 160000.0
-102.0 160000.0
-110.0 160000.0
-113.0 160000.0
-118.0 160000.0
-123.0 160000.0
-128.0 159999.9
-136.0 159999.9
-139.0 159999.9
-155.0 159999.9
-158.0 159999.9
-161.0 159999.9
-163.0 159999.9
-168.0 159999.9
-173.0 159999.9
-175.0 159999.9
-177.0 159999.9
-184.0 159999.9
-188.0 159999.9
-194.0 159999.9
-199.0 159999.9
-203.0 159999.9
-213.0 159999.9
-215.0 159999.9
-228.0 159999.8
-230.0 159999.8
-232.0 159999.8
-237.0 159999.8
-240.0 159999.8
-248.0 159999.8
-251.0 159999.8
-253.0 159999.8
-257.0 159999.8
-263.0 159999.8
-272.0 159999.8
-273.0 159999.8
-279.0 159999.8
-280.0 159999.8
-285.0 159999.7
-295.0 159999.7
-302.0 159999.7
-303.0 159999.7
-306.0 159999.7
-313.0 159999.7
-315.0 159999.7
-320.0 159999.7
-326.0 159999.7
-332.0 159999.7
-336.0 159999.6
-340.0 159999.6
-347.0 159999.6
-357.0 159999.6
-359.0 159999.6
-362.0 159999.6
-366.0 159999.6
-375.0 159999.6
-379.0 159999.6
-380.0 159999.5
-391.0 159999.5
-393.0 159999.5
-397.0 159999.5
-403.0 159999.5
-409.0 159999.5
-410.0 159999.5
-422.0 159999.4
-423.0 159999.4
-426.0 159999.4
-432.0 159999.4
-437.0 159999.4
-440.0 159999.4
-445.0 159999.4
-453.0 159999.4
-455.0 159999.4
-461.0 159999.3
-470.0 159999.3
-473.0 159999.3
-475.0 159999.3
-490.0 159999.2
-491.0 159999.2
-496.0 159999.2
-502.0 159999.2
-508.0 159999.2
-509.0 159999.2
-517.0 159999.2
-528.0 159999.1
-533.0 159999.1
-536.0 159999.1
-541.0 159999.1
-542.0 159999.1
-543.0 159999.1
-546.0 159999.1
-554.0 159999.0
-558.0 159999.0
-565.0 159999.0
-567.0 159999.0
-570.0 159999.0
-576.0 159999.0
-584.0 159998.9
-585.0 159998.9
-591.0 159998.9
-597.0 159998.9
-600.0 159998.9
-605.0 159998.9
-614.0 159998.8
-618.0 159998.8
-622.0 159998.8
-628.0 159998.8
-636.0 159998.7
-648.0 159998.7
-654.0 159998.7
-656.0 159998.7
-664.0 159998.6
-665.0 159998.6
-667.0 159998.6
-671.0 159998.6
-672.0 159998.6
-678.0 159998.6
-680.0 159998.6
-687.0 159998.5
-690.0 159998.5
-697.0 159998.5
-705.0 159998.4
-712.0 159998.4
-713.0 159998.4
-723.0 159998.4
-724.0 159998.4
-725.0 159998.4
-735.0 159998.3
-742.0 159998.3
-746.0 159998.3
-752.0 159998.2
-757.0 159998.2
-758.0 159998.2
-765.0 159998.2
-771.0 159998.1
-779.0 159998.1
-783.0 159998.1
-784.0 159998.1
-785.0 159998.1
-791.0 159998.0
-800.0 159998.0
-801.0 159998.0
-807.0 159998.0
-812.0 159997.9
-815.0 159997.9
-822.0 159997.9
-829.0 159997.9
-838.0 159997.8
-839.0 159997.8
-842.0 159997.8
-846.0 159997.8
-850.0 159997.7
-862.0 159997.7
-867.0 159997.7
-869.0 159997.6
-876.0 159997.6
-877.0 159997.6
-883.0 159997.6
-887.0 159997.5
-893.0 159997.5
-898.0 159997.5
-906.0 159997.4
-907.0 159997.4
-913.0 159997.4
-924.0 159997.3
-927.0 159997.3
-998.0 159996.9
-1134.0 159996.0
-1427.0 159993.6
-1848.0 159989.3
-2239.0 159984.3
-3203.0 159967.9
-3247.0 159967.0
-3812.0 159954.6
-5703.0 159898.3
-6538.0 159866.4
-7507.0 159823.8
-41423.0 154544.9
-81881.0 137460.9
-83321.0 136592.9
-155884.0 36058.0
-44173.0 -153781.5
-23425.0 -158275.9
-3918.0 -159952.0
-2990.0 -159972.1
-1647.0 -159991.5
-1154.0 -159995.8
-1054.0 -159996.5
-996.0 -159996.9
-982.0 -159997.0
-976.0 -159997.0
-950.0 -159997.2
-943.0 -159997.2
-939.0 -159997.2
-937.0 -159997.3
-930.0 -159997.3
-921.0 -159997.3
-919.0 -159997.4
-915.0 -159997.4
-907.0 -159997.4
-901.0 -159997.5
-899.0 -159997.5
-898.0 -159997.5
-897.0 -159997.5
-894.0 -159997.5
-879.0 -159997.6
-871.0 -159997.6
-868.0 -159997.6
-865.0 -159997.7
-863.0 -159997.7
-856.0 -159997.7
-846.0 -159997.8
-840.0 -159997.8
-835.0 -159997.8
-830.0 -159997.8
-825.0 -159997.9
-820.0 -159997.9
-818.0 -159997.9
-811.0 -159997.9
-809.0 -159998.0
-801.0 -159998.0
-797.0 -159998.0
-793.0 -159998.0
-786.0 -159998.1
-781.0 -159998.1
-780.0 -159998.1
-779.0 -159998.1
-769.0 -159998.2
-768.0 -159998.2
-755.0 -159998.2
-754.0 -159998.2
-750.0 -159998.2
-749.0 -159998.2
-742.0 -159998.3
-735.0 -159998.3
-725.0 -159998.4
-721.0 -159998.4
-717.0 -159998.4
-716.0 -159998.4
-706.0 -159998.4
-700.0 -159998.5
-696.0 -159998.5
-691.0 -159998.5
-688.0 -159998.5
-682.0 -159998.5
-681.0 -159998.6
-672.0 -159998.6
-669.0 -159998.6
-664.0 -159998.6
-660.0 -159998.6
-654.0 -159998.7
-652.0 -159998.7
-645.0 -159998.7
-637.0 -159998.7
-630.0 -159998.8
-625.0 -159998.8
-624.0 -159998.8
-615.0 -159998.8
-614.0 -159998.8
-610.0 -159998.8
-604.0 -159998.9
-603.0 -159998.9
-602.0 -159998.9
-595.0 -159998.9
-584.0 -159998.9
-580.0 -159998.9
-575.0 -159999.0
-566.0 -159999.0
-563.0 -159999.0
-558.0 -159999.0
-556.0 -159999.0
-551.0 -159999.1
-548.0 -159999.1
-539.0 -159999.1
-532.0 -159999.1
-529.0 -159999.1
-520.0 -159999.2
-517.0 -159999.2
-515.0 -159999.2
-512.0 -159999.2
-508.0 -159999.2
-505.0 -159999.2
-500.0 -159999.2
-497.0 -159999.2
-485.0 -159999.3
-479.0 -159999.3
-474.0 -159999.3
-467.0 -159999.3
-465.0 -159999.3
-458.0 -159999.3
-453.0 -159999.4
-447.0 -159999.4
-445.0 -159999.4
-439.0 -159999.4
-436.0 -159999.4
-430.0 -159999.4
-422.0 -159999.4
-420.0 -159999.4
-411.0 -159999.5
-406.0 -159999.5
-404.0 -159999.5
-398.0 -159999.5
-394.0 -159999.5
-391.0 -159999.5
-387.0 -159999.5
-376.0 -159999.6
-374.0 -159999.6
-370.0 -159999.6
-360.0 -159999.6
-356.0 -159999.6
-354.0 -159999.6
-353.0 -159999.6
-341.0 -159999.6
-335.0 -159999.6
-333.0 -159999.7
-327.0 -159999.7
-324.0 -159999.7
-315.0 -159999.7
-312.0 -159999.7
-306.0 -159999.7
-301.0 -159999.7
-297.0 -159999.7
-293.0 -159999.7
-285.0 -159999.7
-283.0 -159999.7
-282.0 -159999.8
-274.0 -159999.8
-272.0 -159999.8
-271.0 -159999.8
-260.0 -159999.8
-257.0 -159999.8
-246.0 -159999.8
-245.0 -159999.8
-237.0 -159999.8
-235.0 -159999.8
-229.0 -159999.8
-223.0 -159999.8
-222.0 -159999.8
-216.0 -159999.9
-214.0 -159999.9
-213.0 -159999.9
-211.0 -159999.9
-194.0 -159999.9
-186.0 -159999.9
-182.0 -159999.9
-181.0 -159999.9
-171.0 -159999.9
-169.0 -159999.9
-161.0 -159999.9
-160.0 -159999.9
-154.0 -159999.9
-145.0 -159999.9
-143.0 -159999.9
-136.0 -159999.9
-134.0 -159999.9
-127.0 -159999.9
-121.0 -160000.0
-116.0 -160000.0
-111.0 -160000.0
-110.0 -160000.0
-104.0 -160000.0
-95.0 -160000.0
-94.0 -160000.0
-91.0 -160000.0
-88.0 -160000.0
-75.0 -160000.0
-70.0 -160000.0
-67.0 -160000.0
-61.0 -160000.0
-58.0 -160000.0
-51.0 -160000.0
-47.0 -160000.0
-41.0 -160000.0
-37.0 -160000.0
-34.0 -160000.0
-27.0 -160000.0
-23.0 -160000.0
-19.0 -160000.0
-18.0 -160000.0
-14.0 -160000.0
-0.0 -160000.0
6.0 -160000.0
9.0 -160000.0
13.0 -160000.0
18.0 -160000.0
28.0 -160000.0
30.0 -160000.0
32.0 -160000.0
36.0 -160000.0
41.0 -160000.0
47.0 -160000.0
50.0 -160000.0
59.0 -160000.0
71.0 -160000.0
73.0 -160000.0
82.0 -160000.0
84.0 -160000.0
85.0 -160000.0
89.0 -160000.0
94.0 -160000.0
99.0 -160000.0
103.0 -160000.0
113.0 -160000.0
117.0 -160000.0
118.0 -160000.0
124.0 -160000.0
127.0 -159999.9
134.0 -159999.9
138.0 -159999.9
144.0 -159999.9
148.0 -159999.9
155.0 -159999.9
160.0 -159999.9
163.0 -159999.9
169.0 -159999.9
171.0 -159999.9
177.0 -159999.9
180.0 -159999.9
186.0 -159999.9
191.0 -159999.9
198.0 -159999.9
204.0 -159999.9
207.0 -159999.9
216.0 -159999.9
217.0 -159999.9
225.0 -159999.8
236.0 -159999.8
238.0 -159999.8
239.0 -159999.8
241.0 -159999.8
247.0 -159999.8
253.0 -159999.8
255.0 -159999.8
266.0 -159999.8
269.0 -159999.8
275.0 -159999.8
276.0 -159999.8
280.0 -159999.8
285.0 -159999.7
292.0 -159999.7
298.0 -159999.7
300.0 -159999.7
310.0 -159999.7
314.0 -159999.7
322.0 -159999.7
326.0 -159999.7
337.0 -159999.6
340.0 -159999.6
341.0 -159999.6
343.0 -159999.6
348.0 -159999.6
352.0 -159999.6
360.0 -159999.6
367.0 -159999.6
369.0 -159999.6
372.0 -159999.6
377.0 -159999.6
381.0 -159999.5
386.0 -159999.5
398.0 -159999.5
400.0 -159999.5
401.0 -159999.5
408.0 -159999.5
410.0 -159999.5
416.0 -159999.5
427.0 -159999.4
431.0 -159999.4
432.0 -159999.4
438.0 -159999.4
453.0 -159999.4
455.0 -159999.4
458.0 -159999.3
459.0 -159999.3
465.0 -159999.3
471.0 -159999.3
473.0 -159999.3
475.0 -159999.3
483.0 -159999.3
488.0 -159999.3
493.0 -159999.2
498.0 -159999.2
503.0 -159999.2
513.0 -159999.2
519.0 -159999.2
523.0 -159999.1
526.0 -159999.1
527.0 -159999.1
531.0 -159999.1
539.0 -159999.1
543.0 -159999.1
548.0 -159999.1
553.0 -159999.0
555.0 -159999.0
562.0 -159999.0
566.0 -159999.0
573.0 -159999.0
578.0 -159999.0
585.0 -159998.9
587.0 -159998.9
591.0 -159998.9
595.0 -159998.9
602.0 -159998.9
610.0 -159998.8
617.0 -159998.8
618.0 -159998.8
628.0 -159998.8
629.0 -159998.8
632.0 -159998.8
638.0 -159998.7
640.0 -159998.7
652.0 -159998.7
657.0 -159998.7
662.0 -159998.6
665.0 -159998.6
669.0 -159998.6
670.0 -159998.6
692.0 -159998.5
694.0 -159998.5
696.0 -159998.5
697.0 -159998.5
701.0 -159998.5
705.0 -159998.4
707.0 -159998.4
710.0 -159998.4
718.0 -159998.4
724.0 -159998.4
728.0 -159998.3
735.0 -159998.3
743.0 -159998.3
745.0 -159998.3
747.0 -159998.3
755.0 -159998.2
758.0 -159998.2
761.0 -159998.2
769.0 -159998.2
773.0 -159998.1
775.0 -159998.1
784.0 -159998.1
785.0 -159998.1
794.0 -159998.0
796.0 -159998.0
805.0 -159998.0
809.0 -159998.0
812.0 -159997.9
816.0 -159997.9
820.0 -159997.9
825.0 -159997.9
836.0 -159997.8
840.0 -159997.8
841.0 -159997.8
845.0 -159997.8
851.0 -159997.7
855.0 -159997.7
860.0 -159997.7
867.0 -159997.7
874.0 -159997.6
879.0 -159997.6
880.0 -159997.6
888.0 -159997.5
894.0 -159997.5
895.0 -159997.5
905.0 -159997.4
908.0 -159997.4
915.0 -159997.4
924.0 -159997.3
925.0 -159997.3
927.0 -159997.3
931.0 -159997.3
936.0 -159997.3
944.0 -159997.2
950.0 -159997.2
951.0 -159997.2
955.0 -159997.1
999.0 -159996.9
1118.0 -159996.1
1246.0 -159995.1
1269.0 -159995.0
1408.0 -159993.8
8946.0 -159749.7
12996.0 -159471.3
51430.0 -151508.9
